c instance by G2
c solution = 11111010000100100111011
c Known solution cost is 989 
p cnf 23 30
w 59 66 82 7 55 61 21 2 12 64 97 74 51 72 78 4 62 18 12 6 23 63 0
-2 15 21 0
-14 2 -15 0
19 -20 -23 0
20 10 23 0
-22 6 -10 0
-23 21 -6 0
-14 13 10 0
-10 5 9 0
8 9 4 0
-5 7 -12 0
-12 23 -19 0
-21 -20 -22 0
-4 2 10 0
5 -15 1 0
-2 -8 -1 0
-13 2 15 0
-23 1 21 0
-19 5 13 0
16 1 -11 0
-5 11 -9 0
10 6 -11 0
-13 -3 -2 0
20 14 11 0
-19 14 22 0
-5 -22 -16 0
14 12 -20 0
8 -7 5 0
10 3 -22 0
-4 -17 -12 0
-23 8 18 0
